c nIsolatedPIs 0
c maxPI 12
p cnf 105 280
c gate 13 1 7 0
1 -13 0
7 -13 0
-1 -7 13 0
c gate 14 2 6 0
2 -14 0
6 -14 0
-2 -6 14 0
c gate 15 3 5 0
3 -15 0
5 -15 0
-3 -5 15 0
c gate 16 -14 -15 0
-14 -16 0
-15 -16 0
14 15 16 0
c gate 17 13 -16 0
13 -17 0
-16 -17 0
-13 16 17 0
c gate 18 -13 16 0
-13 -18 0
16 -18 0
13 -16 18 0
c gate 19 -17 -18 0
-17 -19 0
-18 -19 0
17 18 19 0
c gate 20 11 19 0
11 -20 0
19 -20 0
-11 -19 20 0
c gate 21 2 5 0
2 -21 0
5 -21 0
-2 -5 21 0
c gate 22 1 6 0
1 -22 0
6 -22 0
-1 -6 22 0
c gate 23 -21 -22 0
-21 -23 0
-22 -23 0
21 22 23 0
c gate 24 10 -23 0
10 -24 0
-23 -24 0
-10 23 24 0
c gate 25 1 5 0
1 -25 0
5 -25 0
-1 -5 25 0
c gate 26 9 25 0
9 -26 0
25 -26 0
-9 -25 26 0
c gate 27 -10 23 0
-10 -27 0
23 -27 0
10 -23 27 0
c gate 28 -24 -27 0
-24 -28 0
-27 -28 0
24 27 28 0
c gate 29 26 28 0
26 -29 0
28 -29 0
-26 -28 29 0
c gate 30 -24 -29 0
-24 -30 0
-29 -30 0
24 29 30 0
c gate 31 -11 -19 0
-11 -31 0
-19 -31 0
11 19 31 0
c gate 32 -20 -31 0
-20 -32 0
-31 -32 0
20 31 32 0
c gate 33 -30 32 0
-30 -33 0
32 -33 0
30 -32 33 0
c gate 34 -20 -33 0
-20 -34 0
-33 -34 0
20 33 34 0
c gate 35 1 8 0
1 -35 0
8 -35 0
-1 -8 35 0
c gate 36 2 7 0
2 -36 0
7 -36 0
-2 -7 36 0
c gate 37 3 6 0
3 -37 0
6 -37 0
-3 -6 37 0
c gate 38 4 5 0
4 -38 0
5 -38 0
-4 -5 38 0
c gate 39 -37 -38 0
-37 -39 0
-38 -39 0
37 38 39 0
c gate 40 36 -39 0
36 -40 0
-39 -40 0
-36 39 40 0
c gate 41 -36 39 0
-36 -41 0
39 -41 0
36 -39 41 0
c gate 42 -40 -41 0
-40 -42 0
-41 -42 0
40 41 42 0
c gate 43 17 42 0
17 -43 0
42 -43 0
-17 -42 43 0
c gate 44 -17 -42 0
-17 -44 0
-42 -44 0
17 42 44 0
c gate 45 -43 -44 0
-43 -45 0
-44 -45 0
43 44 45 0
c gate 46 35 45 0
35 -46 0
45 -46 0
-35 -45 46 0
c gate 47 -35 -45 0
-35 -47 0
-45 -47 0
35 45 47 0
c gate 48 -46 -47 0
-46 -48 0
-47 -48 0
46 47 48 0
c gate 49 12 48 0
12 -49 0
48 -49 0
-12 -48 49 0
c gate 50 -12 -48 0
-12 -50 0
-48 -50 0
12 48 50 0
c gate 51 -49 -50 0
-49 -51 0
-50 -51 0
49 50 51 0
c gate 52 -34 51 0
-34 -52 0
51 -52 0
34 -51 52 0
c gate 53 34 -51 0
34 -53 0
-51 -53 0
-34 51 53 0
c gate 54 -52 -53 0
-52 -54 0
-53 -54 0
52 53 54 0
c gate 55 21 22 0
21 -55 0
22 -55 0
-21 -22 55 0
c gate 56 14 15 0
14 -56 0
15 -56 0
-14 -15 56 0
c gate 57 -13 56 0
-13 -57 0
56 -57 0
13 -56 57 0
c gate 58 -19 -56 0
-19 -58 0
-56 -58 0
19 56 58 0
c gate 59 -57 -58 0
-57 -59 0
-58 -59 0
57 58 59 0
c gate 60 55 59 0
55 -60 0
59 -60 0
-55 -59 60 0
c gate 61 -17 -56 0
-17 -61 0
-56 -61 0
17 56 61 0
c gate 62 37 38 0
37 -62 0
38 -62 0
-37 -38 62 0
c gate 63 -40 -62 0
-40 -63 0
-62 -63 0
40 62 63 0
c gate 64 36 62 0
36 -64 0
62 -64 0
-36 -62 64 0
c gate 65 -63 -64 0
-63 -65 0
-64 -65 0
63 64 65 0
c gate 66 -41 -65 0
-41 -66 0
-65 -66 0
41 65 66 0
c gate 67 -61 66 0
-61 -67 0
66 -67 0
61 -66 67 0
c gate 68 61 -66 0
61 -68 0
-66 -68 0
-61 66 68 0
c gate 69 -67 -68 0
-67 -69 0
-68 -69 0
67 68 69 0
c gate 70 35 69 0
35 -70 0
69 -70 0
-35 -69 70 0
c gate 71 -35 -69 0
-35 -71 0
-69 -71 0
35 69 71 0
c gate 72 -70 -71 0
-70 -72 0
-71 -72 0
70 71 72 0
c gate 73 -60 -72 0
-60 -73 0
-72 -73 0
60 72 73 0
c gate 74 60 72 0
60 -74 0
72 -74 0
-60 -72 74 0
c gate 75 -73 -74 0
-73 -75 0
-74 -75 0
73 74 75 0
c gate 76 12 75 0
12 -76 0
75 -76 0
-12 -75 76 0
c gate 77 -12 -75 0
-12 -77 0
-75 -77 0
12 75 77 0
c gate 78 -76 -77 0
-76 -78 0
-77 -78 0
76 77 78 0
c gate 79 -55 -59 0
-55 -79 0
-59 -79 0
55 59 79 0
c gate 80 -60 -79 0
-60 -80 0
-79 -80 0
60 79 80 0
c gate 81 11 80 0
11 -81 0
80 -81 0
-11 -80 81 0
c gate 82 -11 -80 0
-11 -82 0
-80 -82 0
11 80 82 0
c gate 83 -26 -28 0
-26 -83 0
-28 -83 0
26 28 83 0
c gate 84 -29 -83 0
-29 -84 0
-83 -84 0
29 83 84 0
c gate 85 55 -84 0
55 -85 0
-84 -85 0
-55 84 85 0
c gate 86 -30 -85 0
-30 -86 0
-85 -86 0
30 85 86 0
c gate 87 -82 86 0
-82 -87 0
86 -87 0
82 -86 87 0
c gate 88 -81 -87 0
-81 -88 0
-87 -88 0
81 87 88 0
c gate 89 78 -88 0
78 -89 0
-88 -89 0
-78 88 89 0
c gate 90 -78 88 0
-78 -90 0
88 -90 0
78 -88 90 0
c gate 91 -89 -90 0
-89 -91 0
-90 -91 0
89 90 91 0
c gate 92 54 -91 0
54 -92 0
-91 -92 0
-54 91 92 0
c gate 93 -54 91 0
-54 -93 0
91 -93 0
54 -91 93 0
c gate 94 -92 -93 0
-92 -94 0
-93 -94 0
92 93 94 0
c gate 95 -55 -56 0
-55 -95 0
-56 -95 0
55 56 95 0
c gate 96 -81 -82 0
-81 -96 0
-82 -96 0
81 82 96 0
c gate 97 -33 -96 0
-33 -97 0
-96 -97 0
33 96 97 0
c gate 98 30 -32 0
30 -98 0
-32 -98 0
-30 32 98 0
c gate 99 -85 -98 0
-85 -99 0
-98 -99 0
85 98 99 0
c gate 100 96 99 0
96 -100 0
99 -100 0
-96 -99 100 0
c gate 101 -97 -100 0
-97 -101 0
-100 -101 0
97 100 101 0
c gate 102 -95 -101 0
-95 -102 0
-101 -102 0
95 101 102 0
c gate 103 -94 102 0
-94 -103 0
102 -103 0
94 -102 103 0
c gate 104 94 -102 0
94 -104 0
-102 -104 0
-94 102 104 0
c gate 105 -103 -104 0
-103 -105 0
-104 -105 0
103 104 105 0
c PO
105 0
